data/rand/rand_013.gr
p tdp 15 54
1 3
1 5
1 7
1 8
1 9
1 10
1 11
1 15
2 3
2 5
2 6
2 9
2 11
2 14
2 15
3 4
3 5
3 8
3 11
3 12
3 14
3 15
4 7
4 8
4 9
4 10
4 11
4 13
5 9
5 10
5 11
5 13
5 14
5 15
6 7
6 9
6 14
6 15
7 9
7 10
7 12
7 14
8 11
8 12
8 13
9 12
9 15
10 12
10 14
11 15
12 13
12 14
13 15
14 15
