solutions/best/rand/rand_013.sol
10
0
1
15
2
4
7
9
3
15
7
8
5
8
12
14
